sat
(:eliminated-applications 2
 :eliminated-vars         2
 :max-memory              18.00
 :memory                  17.91
 :nlsat-propagations      2
 :nlsat-stages            3
 :num-allocs              5110
 :rlimit-count            467
 :time                    0.00
 :total-time              0.01)
